unknown
(model
; cardinality of BoundSet is 3
(declare-sort BoundSet 0)
; rep: @uc_BoundSet_0
; rep: @uc_BoundSet_1
; rep: @uc_BoundSet_2
; cardinality of UnboundSet is 1
(declare-sort UnboundSet 0)
(declare-fun groundTerm_4 () UnboundSet)
(define-fun IsUsherIn ((BOUND_VARIABLE_449 BoundSet) (BOUND_VARIABLE_450 BoundSet)) Bool true)
(define-fun IsMayhem ((BOUND_VARIABLE_453 BoundSet)) Bool true)
(define-fun IsDifficult ((BOUND_VARIABLE_453 BoundSet)) Bool false)
(define-fun IsProve ((BOUND_VARIABLE_453 BoundSet)) Bool false)
(define-fun IsResolve ((BOUND_VARIABLE_453 BoundSet)) Bool false)
)
sat
(model
; cardinality of BoundSet is 1
(declare-sort BoundSet 0)
; rep: @uc_BoundSet_0
; cardinality of UnboundSet is 1
(declare-sort UnboundSet 0)
(declare-fun groundTerm_9 () UnboundSet)
(define-fun IsUsherIn ((BOUND_VARIABLE_524 BoundSet) (BOUND_VARIABLE_525 BoundSet)) Bool true)
(define-fun IsMayhem ((BOUND_VARIABLE_528 BoundSet)) Bool true)
(define-fun IsDifficult ((BOUND_VARIABLE_528 BoundSet)) Bool true)
(define-fun IsProve ((BOUND_VARIABLE_528 BoundSet)) Bool false)
(define-fun IsResolve ((BOUND_VARIABLE_528 BoundSet)) Bool false)
)
